30805
118,164,166,373,441,555,583,640,653,680,720,749,891,968,1012,1162,1267,1474,1534,1660,1737,1754,1861,1872,1953,1990,2094,2198,2253,2261,2317,2340,2351,2369,2399,2722,2787,2789,2816,2875,3172,3197,3211,3241,3272,3281,3428,3571,3807,3888,3898,3961,4095,4270,4310,4543,4730,4783,4803,4822
